26
0
11
10
15
0
14
0
9
12
9
0
5
0
0
0
11
0
27
0
8
0
0
35
8
0
7
0
0
12
0
0
0
13
11
0
6
0
12
17
11
6
18
28
10
7
0
0
0
12
0
31
7
7
0
13
5
30
9
9
0
0
0
0
0
0
11
0
22
7
17
23
6
12
0
20
23
0
0
18
19
0
0
0
0
8
18
0
0
14
0
30
10
0
10
0
18
17
14
0
